c A SAT instance generated from a 3-CNF formula that had 22 clauses and 5 variables
p cnf 5 22
5 -2 1 0
-4 1 3 0
-2 5 4 0
5 -2 -1 0
5 2 -1 0
5 3 -2 0
5 -3 2 0
-5 3 -2 0
-2 1 3 0
3 1 -4 0
-4 3 2 0
1 -5 3 0
5 1 2 0
5 -4 -1 0
1 -2 5 0
-5 1 2 0
-3 -2 4 0
-1 2 -5 0
4 -1 2 0
3 -2 -1 0
5 2 4 0
1 -4 5 0
%
0

24 20 28 70 54
